p cnf 275 933
c p weight 110 -1 0
c p weight -110 1 0
c p weight 112 6.12323399573676603586882014729198302312846062338790031898128063403419218957424163818359375E-17 0
c p weight -112 1 0
c p weight 113 1 0
c p weight -113 1 0
c p weight 114 -1 0
c p weight -114 1 0
c p weight 116 -1 0
c p weight -116 1 0
c p weight 119 -1 0
c p weight -119 1 0
c p weight 122 -1 0
c p weight -122 1 0
c p weight 125 -1 0
c p weight -125 1 0
c p weight 128 -1 0
c p weight -128 1 0
c p weight 131 -1 0
c p weight -131 1 0
c p weight 134 -1 0
c p weight -134 1 0
c p weight 137 -1 0
c p weight -137 1 0
c p weight 140 -1 0
c p weight -140 1 0
c p weight 143 -1 0
c p weight -143 1 0
c p weight 146 -1 0
c p weight -146 1 0
c p weight 149 -1 0
c p weight -149 1 0
c p weight 152 -1 0
c p weight -152 1 0
c p weight 155 -1 0
c p weight -155 1 0
c p weight 158 -1 0
c p weight -158 1 0
c p weight 161 -1 0
c p weight -161 1 0
c p weight 164 -1 0
c p weight -164 1 0
c p weight 167 -1 0
c p weight -167 1 0
c p weight 170 -1 0
c p weight -170 1 0
c p weight 173 -1 0
c p weight -173 1 0
c p weight 176 -1 0
c p weight -176 1 0
c p weight 179 -1 0
c p weight -179 1 0
c p weight 182 -1 0
c p weight -182 1 0
c p weight 185 -1 0
c p weight -185 1 0
c p weight 188 -1 0
c p weight -188 1 0
c p weight 191 -1 0
c p weight -191 1 0
c p weight 194 -1 0
c p weight -194 1 0
c p weight 197 -1 0
c p weight -197 1 0
c p weight 200 -1 0
c p weight -200 1 0
c p weight 203 -1 0
c p weight -203 1 0
c p weight 206 -1 0
c p weight -206 1 0
c p weight 209 -1 0
c p weight -209 1 0
c p weight 212 -1 0
c p weight -212 1 0
c p weight 215 -1 0
c p weight -215 1 0
c p weight 218 -1 0
c p weight -218 1 0
c p weight 221 -1 0
c p weight -221 1 0
c p weight 224 -1 0
c p weight -224 1 0
c p weight 227 -1 0
c p weight -227 1 0
c p weight 230 -1 0
c p weight -230 1 0
c p weight 233 -1 0
c p weight -233 1 0
c p weight 236 -1 0
c p weight -236 1 0
c p weight 239 -1 0
c p weight -239 1 0
c p weight 242 -1 0
c p weight -242 1 0
c p weight 245 -1 0
c p weight -245 1 0
c p weight 248 -1 0
c p weight -248 1 0
c p weight 251 -1 0
c p weight -251 1 0
c p weight 254 -1 0
c p weight -254 1 0
c p weight 257 -1 0
c p weight -257 1 0
c p weight 260 -1 0
c p weight -260 1 0
c p weight 263 -1 0
c p weight -263 1 0
c p weight 266 -1 0
c p weight -266 1 0
c p weight 269 -1 0
c p weight -269 1 0
c p weight 272 -1 0
c p weight -272 1 0
c p weight 275 -1 0
c p weight -275 1 0
-107 0
-105 0
-103 0
-101 0
-99 0
-97 0
-95 0
-93 0
-91 0
-89 0
-87 0
-85 0
-83 0
-81 0
-79 0
-77 0
-75 0
-73 0
-71 0
-69 0
-67 0
-65 0
-63 0
-61 0
-59 0
-57 0
-55 0
-53 0
-51 0
-49 0
-47 0
-45 0
-43 0
-41 0
-39 0
-37 0
-35 0
-33 0
-31 0
-29 0
-27 0
-25 0
-23 0
-21 0
-19 0
-17 0
-15 0
-13 0
-11 0
-9 0
-7 0
-5 0
-3 0
-1 0
109 107 -108 0
109 -107 108 0
-109 107 108 0
-109 -107 -108 0
-110 107 0
-110 108 0
110 -107 -108 0
111 -107 109 0
-111 107 109 0
-112 109 0
111 -112 -107 0
-111 -112 107 0
111 112 107 -109 0
-111 112 -107 -109 0
-113 109 0
111 -113 107 0
-111 -113 -107 0
111 113 -107 -109 0
-111 113 107 -109 0
-114 111 0
-114 109 0
-114 -107 0
114 -111 107 -109 0
115 111 -109 0
115 -111 109 0
-115 111 109 0
-115 -111 -109 0
-116 111 0
-116 109 0
116 -111 -109 0
117 111 -105 0
117 -111 105 0
-117 111 105 0
-117 -111 -105 0
118 115 -106 0
118 -115 106 0
-118 115 106 0
-118 -115 -106 0
-119 111 0
-119 106 0
-119 105 -115 0
-119 -105 115 0
119 -111 105 115 -106 0
119 -111 -105 -115 -106 0
120 117 -103 0
120 -117 103 0
-120 117 103 0
-120 -117 -103 0
121 106 -104 0
121 -106 104 0
-121 106 104 0
-121 -106 -104 0
-122 117 0
-122 104 0
-122 103 -106 0
-122 -103 106 0
122 -117 103 106 -104 0
122 -117 -103 -106 -104 0
123 120 -101 0
123 -120 101 0
-123 120 101 0
-123 -120 -101 0
124 104 -102 0
124 -104 102 0
-124 104 102 0
-124 -104 -102 0
-125 120 0
-125 102 0
-125 101 -104 0
-125 -101 104 0
125 -120 101 104 -102 0
125 -120 -101 -104 -102 0
126 123 -99 0
126 -123 99 0
-126 123 99 0
-126 -123 -99 0
127 102 -100 0
127 -102 100 0
-127 102 100 0
-127 -102 -100 0
-128 123 0
-128 100 0
-128 99 -102 0
-128 -99 102 0
128 -123 99 102 -100 0
128 -123 -99 -102 -100 0
129 126 -97 0
129 -126 97 0
-129 126 97 0
-129 -126 -97 0
130 100 -98 0
130 -100 98 0
-130 100 98 0
-130 -100 -98 0
-131 126 0
-131 98 0
-131 97 -100 0
-131 -97 100 0
131 -126 97 100 -98 0
131 -126 -97 -100 -98 0
132 129 -95 0
132 -129 95 0
-132 129 95 0
-132 -129 -95 0
133 98 -96 0
133 -98 96 0
-133 98 96 0
-133 -98 -96 0
-134 129 0
-134 96 0
-134 95 -98 0
-134 -95 98 0
134 -129 95 98 -96 0
134 -129 -95 -98 -96 0
135 132 -93 0
135 -132 93 0
-135 132 93 0
-135 -132 -93 0
136 96 -94 0
136 -96 94 0
-136 96 94 0
-136 -96 -94 0
-137 132 0
-137 94 0
-137 93 -96 0
-137 -93 96 0
137 -132 93 96 -94 0
137 -132 -93 -96 -94 0
138 135 -91 0
138 -135 91 0
-138 135 91 0
-138 -135 -91 0
139 94 -92 0
139 -94 92 0
-139 94 92 0
-139 -94 -92 0
-140 135 0
-140 92 0
-140 91 -94 0
-140 -91 94 0
140 -135 91 94 -92 0
140 -135 -91 -94 -92 0
141 138 -89 0
141 -138 89 0
-141 138 89 0
-141 -138 -89 0
142 92 -90 0
142 -92 90 0
-142 92 90 0
-142 -92 -90 0
-143 138 0
-143 90 0
-143 89 -92 0
-143 -89 92 0
143 -138 89 92 -90 0
143 -138 -89 -92 -90 0
144 141 -87 0
144 -141 87 0
-144 141 87 0
-144 -141 -87 0
145 90 -88 0
145 -90 88 0
-145 90 88 0
-145 -90 -88 0
-146 141 0
-146 88 0
-146 87 -90 0
-146 -87 90 0
146 -141 87 90 -88 0
146 -141 -87 -90 -88 0
147 144 -85 0
147 -144 85 0
-147 144 85 0
-147 -144 -85 0
148 88 -86 0
148 -88 86 0
-148 88 86 0
-148 -88 -86 0
-149 144 0
-149 86 0
-149 85 -88 0
-149 -85 88 0
149 -144 85 88 -86 0
149 -144 -85 -88 -86 0
150 147 -83 0
150 -147 83 0
-150 147 83 0
-150 -147 -83 0
151 86 -84 0
151 -86 84 0
-151 86 84 0
-151 -86 -84 0
-152 147 0
-152 84 0
-152 83 -86 0
-152 -83 86 0
152 -147 83 86 -84 0
152 -147 -83 -86 -84 0
153 150 -81 0
153 -150 81 0
-153 150 81 0
-153 -150 -81 0
154 84 -82 0
154 -84 82 0
-154 84 82 0
-154 -84 -82 0
-155 150 0
-155 82 0
-155 81 -84 0
-155 -81 84 0
155 -150 81 84 -82 0
155 -150 -81 -84 -82 0
156 153 -79 0
156 -153 79 0
-156 153 79 0
-156 -153 -79 0
157 82 -80 0
157 -82 80 0
-157 82 80 0
-157 -82 -80 0
-158 153 0
-158 80 0
-158 79 -82 0
-158 -79 82 0
158 -153 79 82 -80 0
158 -153 -79 -82 -80 0
159 156 -77 0
159 -156 77 0
-159 156 77 0
-159 -156 -77 0
160 80 -78 0
160 -80 78 0
-160 80 78 0
-160 -80 -78 0
-161 156 0
-161 78 0
-161 77 -80 0
-161 -77 80 0
161 -156 77 80 -78 0
161 -156 -77 -80 -78 0
162 159 -75 0
162 -159 75 0
-162 159 75 0
-162 -159 -75 0
163 78 -76 0
163 -78 76 0
-163 78 76 0
-163 -78 -76 0
-164 159 0
-164 76 0
-164 75 -78 0
-164 -75 78 0
164 -159 75 78 -76 0
164 -159 -75 -78 -76 0
165 162 -73 0
165 -162 73 0
-165 162 73 0
-165 -162 -73 0
166 76 -74 0
166 -76 74 0
-166 76 74 0
-166 -76 -74 0
-167 162 0
-167 74 0
-167 73 -76 0
-167 -73 76 0
167 -162 73 76 -74 0
167 -162 -73 -76 -74 0
168 165 -71 0
168 -165 71 0
-168 165 71 0
-168 -165 -71 0
169 74 -72 0
169 -74 72 0
-169 74 72 0
-169 -74 -72 0
-170 165 0
-170 72 0
-170 71 -74 0
-170 -71 74 0
170 -165 71 74 -72 0
170 -165 -71 -74 -72 0
171 168 -69 0
171 -168 69 0
-171 168 69 0
-171 -168 -69 0
172 72 -70 0
172 -72 70 0
-172 72 70 0
-172 -72 -70 0
-173 168 0
-173 70 0
-173 69 -72 0
-173 -69 72 0
173 -168 69 72 -70 0
173 -168 -69 -72 -70 0
174 171 -67 0
174 -171 67 0
-174 171 67 0
-174 -171 -67 0
175 70 -68 0
175 -70 68 0
-175 70 68 0
-175 -70 -68 0
-176 171 0
-176 68 0
-176 67 -70 0
-176 -67 70 0
176 -171 67 70 -68 0
176 -171 -67 -70 -68 0
177 174 -65 0
177 -174 65 0
-177 174 65 0
-177 -174 -65 0
178 68 -66 0
178 -68 66 0
-178 68 66 0
-178 -68 -66 0
-179 174 0
-179 66 0
-179 65 -68 0
-179 -65 68 0
179 -174 65 68 -66 0
179 -174 -65 -68 -66 0
180 177 -63 0
180 -177 63 0
-180 177 63 0
-180 -177 -63 0
181 66 -64 0
181 -66 64 0
-181 66 64 0
-181 -66 -64 0
-182 177 0
-182 64 0
-182 63 -66 0
-182 -63 66 0
182 -177 63 66 -64 0
182 -177 -63 -66 -64 0
183 180 -61 0
183 -180 61 0
-183 180 61 0
-183 -180 -61 0
184 64 -62 0
184 -64 62 0
-184 64 62 0
-184 -64 -62 0
-185 180 0
-185 62 0
-185 61 -64 0
-185 -61 64 0
185 -180 61 64 -62 0
185 -180 -61 -64 -62 0
186 183 -59 0
186 -183 59 0
-186 183 59 0
-186 -183 -59 0
187 62 -60 0
187 -62 60 0
-187 62 60 0
-187 -62 -60 0
-188 183 0
-188 60 0
-188 59 -62 0
-188 -59 62 0
188 -183 59 62 -60 0
188 -183 -59 -62 -60 0
189 186 -57 0
189 -186 57 0
-189 186 57 0
-189 -186 -57 0
190 60 -58 0
190 -60 58 0
-190 60 58 0
-190 -60 -58 0
-191 186 0
-191 58 0
-191 57 -60 0
-191 -57 60 0
191 -186 57 60 -58 0
191 -186 -57 -60 -58 0
192 189 -55 0
192 -189 55 0
-192 189 55 0
-192 -189 -55 0
193 58 -56 0
193 -58 56 0
-193 58 56 0
-193 -58 -56 0
-194 189 0
-194 56 0
-194 55 -58 0
-194 -55 58 0
194 -189 55 58 -56 0
194 -189 -55 -58 -56 0
195 192 -53 0
195 -192 53 0
-195 192 53 0
-195 -192 -53 0
196 56 -54 0
196 -56 54 0
-196 56 54 0
-196 -56 -54 0
-197 192 0
-197 54 0
-197 53 -56 0
-197 -53 56 0
197 -192 53 56 -54 0
197 -192 -53 -56 -54 0
198 195 -51 0
198 -195 51 0
-198 195 51 0
-198 -195 -51 0
199 54 -52 0
199 -54 52 0
-199 54 52 0
-199 -54 -52 0
-200 195 0
-200 52 0
-200 51 -54 0
-200 -51 54 0
200 -195 51 54 -52 0
200 -195 -51 -54 -52 0
201 198 -49 0
201 -198 49 0
-201 198 49 0
-201 -198 -49 0
202 52 -50 0
202 -52 50 0
-202 52 50 0
-202 -52 -50 0
-203 198 0
-203 50 0
-203 49 -52 0
-203 -49 52 0
203 -198 49 52 -50 0
203 -198 -49 -52 -50 0
204 201 -47 0
204 -201 47 0
-204 201 47 0
-204 -201 -47 0
205 50 -48 0
205 -50 48 0
-205 50 48 0
-205 -50 -48 0
-206 201 0
-206 48 0
-206 47 -50 0
-206 -47 50 0
206 -201 47 50 -48 0
206 -201 -47 -50 -48 0
207 204 -45 0
207 -204 45 0
-207 204 45 0
-207 -204 -45 0
208 48 -46 0
208 -48 46 0
-208 48 46 0
-208 -48 -46 0
-209 204 0
-209 46 0
-209 45 -48 0
-209 -45 48 0
209 -204 45 48 -46 0
209 -204 -45 -48 -46 0
210 207 -43 0
210 -207 43 0
-210 207 43 0
-210 -207 -43 0
211 46 -44 0
211 -46 44 0
-211 46 44 0
-211 -46 -44 0
-212 207 0
-212 44 0
-212 43 -46 0
-212 -43 46 0
212 -207 43 46 -44 0
212 -207 -43 -46 -44 0
213 210 -41 0
213 -210 41 0
-213 210 41 0
-213 -210 -41 0
214 44 -42 0
214 -44 42 0
-214 44 42 0
-214 -44 -42 0
-215 210 0
-215 42 0
-215 41 -44 0
-215 -41 44 0
215 -210 41 44 -42 0
215 -210 -41 -44 -42 0
216 213 -39 0
216 -213 39 0
-216 213 39 0
-216 -213 -39 0
217 42 -40 0
217 -42 40 0
-217 42 40 0
-217 -42 -40 0
-218 213 0
-218 40 0
-218 39 -42 0
-218 -39 42 0
218 -213 39 42 -40 0
218 -213 -39 -42 -40 0
219 216 -37 0
219 -216 37 0
-219 216 37 0
-219 -216 -37 0
220 40 -38 0
220 -40 38 0
-220 40 38 0
-220 -40 -38 0
-221 216 0
-221 38 0
-221 37 -40 0
-221 -37 40 0
221 -216 37 40 -38 0
221 -216 -37 -40 -38 0
222 219 -35 0
222 -219 35 0
-222 219 35 0
-222 -219 -35 0
223 38 -36 0
223 -38 36 0
-223 38 36 0
-223 -38 -36 0
-224 219 0
-224 36 0
-224 35 -38 0
-224 -35 38 0
224 -219 35 38 -36 0
224 -219 -35 -38 -36 0
225 222 -33 0
225 -222 33 0
-225 222 33 0
-225 -222 -33 0
226 36 -34 0
226 -36 34 0
-226 36 34 0
-226 -36 -34 0
-227 222 0
-227 34 0
-227 33 -36 0
-227 -33 36 0
227 -222 33 36 -34 0
227 -222 -33 -36 -34 0
228 225 -31 0
228 -225 31 0
-228 225 31 0
-228 -225 -31 0
229 34 -32 0
229 -34 32 0
-229 34 32 0
-229 -34 -32 0
-230 225 0
-230 32 0
-230 31 -34 0
-230 -31 34 0
230 -225 31 34 -32 0
230 -225 -31 -34 -32 0
231 228 -29 0
231 -228 29 0
-231 228 29 0
-231 -228 -29 0
232 32 -30 0
232 -32 30 0
-232 32 30 0
-232 -32 -30 0
-233 228 0
-233 30 0
-233 29 -32 0
-233 -29 32 0
233 -228 29 32 -30 0
233 -228 -29 -32 -30 0
234 231 -27 0
234 -231 27 0
-234 231 27 0
-234 -231 -27 0
235 30 -28 0
235 -30 28 0
-235 30 28 0
-235 -30 -28 0
-236 231 0
-236 28 0
-236 27 -30 0
-236 -27 30 0
236 -231 27 30 -28 0
236 -231 -27 -30 -28 0
237 234 -25 0
237 -234 25 0
-237 234 25 0
-237 -234 -25 0
238 28 -26 0
238 -28 26 0
-238 28 26 0
-238 -28 -26 0
-239 234 0
-239 26 0
-239 25 -28 0
-239 -25 28 0
239 -234 25 28 -26 0
239 -234 -25 -28 -26 0
240 237 -23 0
240 -237 23 0
-240 237 23 0
-240 -237 -23 0
241 26 -24 0
241 -26 24 0
-241 26 24 0
-241 -26 -24 0
-242 237 0
-242 24 0
-242 23 -26 0
-242 -23 26 0
242 -237 23 26 -24 0
242 -237 -23 -26 -24 0
243 240 -21 0
243 -240 21 0
-243 240 21 0
-243 -240 -21 0
244 24 -22 0
244 -24 22 0
-244 24 22 0
-244 -24 -22 0
-245 240 0
-245 22 0
-245 21 -24 0
-245 -21 24 0
245 -240 21 24 -22 0
245 -240 -21 -24 -22 0
246 243 -19 0
246 -243 19 0
-246 243 19 0
-246 -243 -19 0
247 22 -20 0
247 -22 20 0
-247 22 20 0
-247 -22 -20 0
-248 243 0
-248 20 0
-248 19 -22 0
-248 -19 22 0
248 -243 19 22 -20 0
248 -243 -19 -22 -20 0
249 246 -17 0
249 -246 17 0
-249 246 17 0
-249 -246 -17 0
250 20 -18 0
250 -20 18 0
-250 20 18 0
-250 -20 -18 0
-251 246 0
-251 18 0
-251 17 -20 0
-251 -17 20 0
251 -246 17 20 -18 0
251 -246 -17 -20 -18 0
252 249 -15 0
252 -249 15 0
-252 249 15 0
-252 -249 -15 0
253 18 -16 0
253 -18 16 0
-253 18 16 0
-253 -18 -16 0
-254 249 0
-254 16 0
-254 15 -18 0
-254 -15 18 0
254 -249 15 18 -16 0
254 -249 -15 -18 -16 0
255 252 -13 0
255 -252 13 0
-255 252 13 0
-255 -252 -13 0
256 16 -14 0
256 -16 14 0
-256 16 14 0
-256 -16 -14 0
-257 252 0
-257 14 0
-257 13 -16 0
-257 -13 16 0
257 -252 13 16 -14 0
257 -252 -13 -16 -14 0
258 255 -11 0
258 -255 11 0
-258 255 11 0
-258 -255 -11 0
259 14 -12 0
259 -14 12 0
-259 14 12 0
-259 -14 -12 0
-260 255 0
-260 12 0
-260 11 -14 0
-260 -11 14 0
260 -255 11 14 -12 0
260 -255 -11 -14 -12 0
261 258 -9 0
261 -258 9 0
-261 258 9 0
-261 -258 -9 0
262 12 -10 0
262 -12 10 0
-262 12 10 0
-262 -12 -10 0
-263 258 0
-263 10 0
-263 9 -12 0
-263 -9 12 0
263 -258 9 12 -10 0
263 -258 -9 -12 -10 0
264 261 -7 0
264 -261 7 0
-264 261 7 0
-264 -261 -7 0
265 10 -8 0
265 -10 8 0
-265 10 8 0
-265 -10 -8 0
-266 261 0
-266 8 0
-266 7 -10 0
-266 -7 10 0
266 -261 7 10 -8 0
266 -261 -7 -10 -8 0
267 264 -5 0
267 -264 5 0
-267 264 5 0
-267 -264 -5 0
268 8 -6 0
268 -8 6 0
-268 8 6 0
-268 -8 -6 0
-269 264 0
-269 6 0
-269 5 -8 0
-269 -5 8 0
269 -264 5 8 -6 0
269 -264 -5 -8 -6 0
270 267 -3 0
270 -267 3 0
-270 267 3 0
-270 -267 -3 0
271 6 -4 0
271 -6 4 0
-271 6 4 0
-271 -6 -4 0
-272 267 0
-272 4 0
-272 3 -6 0
-272 -3 6 0
272 -267 3 6 -4 0
272 -267 -3 -6 -4 0
273 270 -1 0
273 -270 1 0
-273 270 1 0
-273 -270 -1 0
274 4 -2 0
274 -4 2 0
-274 4 2 0
-274 -4 -2 0
-275 270 0
-275 2 0
-275 1 -4 0
-275 -1 4 0
275 -270 1 4 -2 0
275 -270 -1 -4 -2 0
-273 0
-270 0
-274 0
-267 0
-271 0
-264 0
-268 0
-261 0
-265 0
-258 0
-262 0
-255 0
-259 0
-252 0
-256 0
-249 0
-253 0
-246 0
-250 0
-243 0
-247 0
-240 0
-244 0
-237 0
-241 0
-234 0
-238 0
-231 0
-235 0
-228 0
-232 0
-225 0
-229 0
-222 0
-226 0
-219 0
-223 0
-216 0
-220 0
-213 0
-217 0
-210 0
-214 0
-207 0
-211 0
-204 0
-208 0
-201 0
-205 0
-198 0
-202 0
-195 0
-199 0
-192 0
-196 0
-189 0
-193 0
-186 0
-190 0
-183 0
-187 0
-180 0
-184 0
-177 0
-181 0
-174 0
-178 0
-171 0
-175 0
-168 0
-172 0
-165 0
-169 0
-162 0
-166 0
-159 0
-163 0
-156 0
-160 0
-153 0
-157 0
-150 0
-154 0
-147 0
-151 0
-144 0
-148 0
-141 0
-145 0
-138 0
-142 0
-135 0
-139 0
-132 0
-136 0
-129 0
-133 0
-126 0
-130 0
-123 0
-127 0
-120 0
-124 0
-117 0
-121 0
-111 0
-118 0
